100 4950
1 2 3
1 3 5
1 4 4
1 5 4
1 6 3
1 7 1
1 8 1
1 9 1
1 10 1
1 11 1
1 12 4
1 13 4
1 14 4
1 15 2
1 16 5
1 17 4
1 18 4
1 19 2
1 20 3
1 21 4
1 22 1
1 23 2
1 24 3
1 25 3
1 26 4
1 27 2
1 28 4
1 29 4
1 30 2
1 31 4
1 32 1
1 33 1
1 34 2
1 35 4
1 36 2
1 37 2
1 38 5
1 39 1
1 40 5
1 41 1
1 42 4
1 43 4
1 44 2
1 45 1
1 46 5
1 47 3
1 48 5
1 49 4
1 50 4
1 51 1
1 52 4
1 53 2
1 54 4
1 55 3
1 56 1
1 57 1
1 58 2
1 59 1
1 60 1
1 61 4
1 62 5
1 63 3
1 64 4
1 65 3
1 66 5
1 67 5
1 68 4
1 69 1
1 70 4
1 71 3
1 72 5
1 73 3
1 74 4
1 75 5
1 76 5
1 77 1
1 78 1
1 79 4
1 80 3
1 81 2
1 82 3
1 83 5
1 84 1
1 85 4
1 86 4
1 87 2
1 88 1
1 89 4
1 90 3
1 91 4
1 92 5
1 93 4
1 94 2
1 95 2
1 96 4
1 97 1
1 98 4
1 99 3
1 100 5
2 3 1
2 4 3
2 5 4
2 6 4
2 7 1
2 8 2
2 9 5
2 10 4
2 11 3
2 12 2
2 13 5
2 14 3
2 15 3
2 16 1
2 17 1
2 18 3
2 19 1
2 20 3
2 21 3
2 22 5
2 23 5
2 24 4
2 25 5
2 26 1
2 27 4
2 28 1
2 29 5
2 30 2
2 31 1
2 32 2
2 33 2
2 34 2
2 35 4
2 36 5
2 37 1
2 38 5
2 39 1
2 40 4
2 41 3
2 42 2
2 43 5
2 44 4
2 45 5
2 46 1
2 47 4
2 48 2
2 49 3
2 50 4
2 51 4
2 52 5
2 53 4
2 54 2
2 55 4
2 56 5
2 57 4
2 58 2
2 59 2
2 60 3
2 61 2
2 62 2
2 63 5
2 64 1
2 65 5
2 66 3
2 67 2
2 68 2
2 69 1
2 70 1
2 71 1
2 72 3
2 73 5
2 74 1
2 75 1
2 76 1
2 77 2
2 78 5
2 79 1
2 80 1
2 81 2
2 82 2
2 83 5
2 84 2
2 85 4
2 86 2
2 87 1
2 88 5
2 89 4
2 90 5
2 91 5
2 92 3
2 93 4
2 94 1
2 95 1
2 96 1
2 97 1
2 98 4
2 99 4
2 100 4
3 4 5
3 5 2
3 6 2
3 7 1
3 8 4
3 9 3
3 10 5
3 11 1
3 12 5
3 13 3
3 14 5
3 15 5
3 16 5
3 17 3
3 18 4
3 19 4
3 20 1
3 21 1
3 22 4
3 23 4
3 24 1
3 25 2
3 26 4
3 27 2
3 28 1
3 29 1
3 30 5
3 31 3
3 32 1
3 33 3
3 34 5
3 35 5
3 36 4
3 37 2
3 38 5
3 39 1
3 40 1
3 41 2
3 42 1
3 43 3
3 44 5
3 45 5
3 46 3
3 47 1
3 48 2
3 49 1
3 50 2
3 51 1
3 52 3
3 53 3
3 54 1
3 55 5
3 56 3
3 57 5
3 58 3
3 59 5
3 60 4
3 61 1
3 62 1
3 63 1
3 64 2
3 65 2
3 66 3
3 67 4
3 68 2
3 69 4
3 70 3
3 71 3
3 72 5
3 73 4
3 74 5
3 75 5
3 76 1
3 77 3
3 78 3
3 79 2
3 80 4
3 81 4
3 82 2
3 83 5
3 84 5
3 85 2
3 86 4
3 87 5
3 88 3
3 89 5
3 90 1
3 91 3
3 92 1
3 93 1
3 94 1
3 95 4
3 96 2
3 97 5
3 98 5
3 99 3
3 100 5
4 5 3
4 6 1
4 7 4
4 8 1
4 9 1
4 10 5
4 11 5
4 12 4
4 13 1
4 14 1
4 15 1
4 16 3
4 17 3
4 18 1
4 19 4
4 20 3
4 21 1
4 22 4
4 23 4
4 24 5
4 25 4
4 26 1
4 27 4
4 28 5
4 29 2
4 30 3
4 31 1
4 32 5
4 33 2
4 34 5
4 35 5
4 36 2
4 37 4
4 38 1
4 39 2
4 40 4
4 41 1
4 42 1
4 43 3
4 44 2
4 45 2
4 46 5
4 47 2
4 48 5
4 49 5
4 50 5
4 51 5
4 52 1
4 53 3
4 54 1
4 55 3
4 56 1
4 57 4
4 58 4
4 59 5
4 60 2
4 61 5
4 62 5
4 63 2
4 64 3
4 65 2
4 66 3
4 67 4
4 68 4
4 69 4
4 70 4
4 71 2
4 72 2
4 73 5
4 74 4
4 75 4
4 76 2
4 77 2
4 78 5
4 79 1
4 80 3
4 81 4
4 82 2
4 83 1
4 84 1
4 85 3
4 86 1
4 87 5
4 88 5
4 89 1
4 90 2
4 91 2
4 92 4
4 93 1
4 94 5
4 95 5
4 96 4
4 97 2
4 98 2
4 99 5
4 100 3
5 6 3
5 7 3
5 8 4
5 9 5
5 10 3
5 11 4
5 12 3
5 13 2
5 14 4
5 15 2
5 16 1
5 17 3
5 18 1
5 19 3
5 20 3
5 21 1
5 22 1
5 23 5
5 24 3
5 25 3
5 26 5
5 27 4
5 28 4
5 29 2
5 30 3
5 31 2
5 32 1
5 33 3
5 34 2
5 35 5
5 36 1
5 37 3
5 38 2
5 39 4
5 40 2
5 41 5
5 42 2
5 43 1
5 44 1
5 45 2
5 46 4
5 47 5
5 48 5
5 49 5
5 50 1
5 51 2
5 52 2
5 53 4
5 54 5
5 55 1
5 56 1
5 57 1
5 58 3
5 59 4
5 60 3
5 61 2
5 62 5
5 63 2
5 64 3
5 65 1
5 66 2
5 67 2
5 68 5
5 69 5
5 70 1
5 71 3
5 72 2
5 73 2
5 74 5
5 75 3
5 76 2
5 77 1
5 78 3
5 79 4
5 80 1
5 81 4
5 82 3
5 83 3
5 84 2
5 85 3
5 86 4
5 87 1
5 88 2
5 89 4
5 90 4
5 91 1
5 92 3
5 93 2
5 94 4
5 95 2
5 96 1
5 97 5
5 98 1
5 99 5
5 100 5
6 7 4
6 8 1
6 9 5
6 10 4
6 11 2
6 12 4
6 13 2
6 14 1
6 15 3
6 16 2
6 17 1
6 18 5
6 19 1
6 20 5
6 21 3
6 22 2
6 23 4
6 24 1
6 25 5
6 26 5
6 27 4
6 28 2
6 29 5
6 30 5
6 31 5
6 32 5
6 33 2
6 34 5
6 35 3
6 36 4
6 37 3
6 38 4
6 39 3
6 40 3
6 41 1
6 42 3
6 43 5
6 44 2
6 45 2
6 46 3
6 47 3
6 48 3
6 49 2
6 50 2
6 51 4
6 52 2
6 53 3
6 54 4
6 55 1
6 56 3
6 57 1
6 58 1
6 59 4
6 60 3
6 61 1
6 62 2
6 63 5
6 64 2
6 65 4
6 66 2
6 67 2
6 68 3
6 69 4
6 70 5
6 71 4
6 72 1
6 73 3
6 74 3
6 75 2
6 76 4
6 77 4
6 78 1
6 79 1
6 80 3
6 81 4
6 82 3
6 83 5
6 84 1
6 85 2
6 86 5
6 87 2
6 88 3
6 89 4
6 90 5
6 91 2
6 92 4
6 93 2
6 94 3
6 95 1
6 96 5
6 97 2
6 98 5
6 99 2
6 100 3
7 8 5
7 9 4
7 10 3
7 11 4
7 12 1
7 13 5
7 14 5
7 15 5
7 16 1
7 17 2
7 18 3
7 19 1
7 20 1
7 21 5
7 22 4
7 23 5
7 24 1
7 25 4
7 26 2
7 27 1
7 28 1
7 29 1
7 30 5
7 31 5
7 32 1
7 33 1
7 34 5
7 35 3
7 36 1
7 37 2
7 38 4
7 39 5
7 40 5
7 41 4
7 42 3
7 43 2
7 44 3
7 45 5
7 46 2
7 47 4
7 48 1
7 49 1
7 50 3
7 51 4
7 52 5
7 53 4
7 54 2
7 55 2
7 56 4
7 57 5
7 58 4
7 59 3
7 60 2
7 61 4
7 62 3
7 63 4
7 64 5
7 65 2
7 66 5
7 67 4
7 68 4
7 69 5
7 70 3
7 71 1
7 72 1
7 73 1
7 74 3
7 75 2
7 76 1
7 77 3
7 78 5
7 79 4
7 80 2
7 81 2
7 82 4
7 83 3
7 84 4
7 85 4
7 86 1
7 87 5
7 88 2
7 89 1
7 90 2
7 91 5
7 92 3
7 93 4
7 94 1
7 95 2
7 96 2
7 97 1
7 98 4
7 99 4
7 100 5
8 9 3
8 10 2
8 11 4
8 12 5
8 13 5
8 14 3
8 15 5
8 16 4
8 17 2
8 18 2
8 19 4
8 20 1
8 21 5
8 22 5
8 23 2
8 24 5
8 25 1
8 26 4
8 27 4
8 28 5
8 29 5
8 30 4
8 31 4
8 32 4
8 33 4
8 34 5
8 35 3
8 36 4
8 37 3
8 38 4
8 39 1
8 40 1
8 41 5
8 42 4
8 43 4
8 44 5
8 45 1
8 46 4
8 47 4
8 48 5
8 49 3
8 50 2
8 51 5
8 52 1
8 53 1
8 54 2
8 55 2
8 56 5
8 57 5
8 58 5
8 59 2
8 60 2
8 61 1
8 62 5
8 63 2
8 64 2
8 65 2
8 66 3
8 67 3
8 68 4
8 69 2
8 70 4
8 71 1
8 72 1
8 73 3
8 74 5
8 75 1
8 76 3
8 77 2
8 78 3
8 79 3
8 80 1
8 81 1
8 82 4
8 83 2
8 84 2
8 85 1
8 86 3
8 87 2
8 88 4
8 89 1
8 90 2
8 91 1
8 92 3
8 93 3
8 94 3
8 95 4
8 96 5
8 97 2
8 98 2
8 99 5
8 100 3
9 10 2
9 11 1
9 12 1
9 13 2
9 14 2
9 15 1
9 16 4
9 17 3
9 18 5
9 19 2
9 20 1
9 21 5
9 22 5
9 23 3
9 24 4
9 25 1
9 26 1
9 27 4
9 28 5
9 29 2
9 30 2
9 31 4
9 32 2
9 33 3
9 34 1
9 35 5
9 36 3
9 37 2
9 38 5
9 39 2
9 40 1
9 41 1
9 42 5
9 43 5
9 44 5
9 45 5
9 46 2
9 47 2
9 48 5
9 49 5
9 50 2
9 51 5
9 52 3
9 53 5
9 54 1
9 55 2
9 56 4
9 57 2
9 58 1
9 59 4
9 60 1
9 61 5
9 62 4
9 63 5
9 64 4
9 65 5
9 66 4
9 67 3
9 68 4
9 69 3
9 70 4
9 71 3
9 72 1
9 73 5
9 74 1
9 75 1
9 76 3
9 77 2
9 78 3
9 79 5
9 80 4
9 81 3
9 82 5
9 83 4
9 84 1
9 85 3
9 86 4
9 87 4
9 88 3
9 89 4
9 90 5
9 91 2
9 92 3
9 93 4
9 94 4
9 95 5
9 96 2
9 97 3
9 98 2
9 99 3
9 100 4
10 11 5
10 12 5
10 13 2
10 14 2
10 15 1
10 16 3
10 17 3
10 18 1
10 19 4
10 20 2
10 21 1
10 22 1
10 23 2
10 24 5
10 25 4
10 26 1
10 27 3
10 28 4
10 29 5
10 30 1
10 31 2
10 32 2
10 33 4
10 34 2
10 35 4
10 36 3
10 37 1
10 38 5
10 39 5
10 40 2
10 41 4
10 42 4
10 43 5
10 44 1
10 45 5
10 46 2
10 47 1
10 48 1
10 49 4
10 50 4
10 51 4
10 52 4
10 53 3
10 54 5
10 55 4
10 56 3
10 57 2
10 58 4
10 59 4
10 60 1
10 61 3
10 62 1
10 63 4
10 64 1
10 65 4
10 66 4
10 67 3
10 68 4
10 69 5
10 70 3
10 71 3
10 72 5
10 73 5
10 74 3
10 75 3
10 76 2
10 77 2
10 78 5
10 79 3
10 80 5
10 81 3
10 82 3
10 83 3
10 84 2
10 85 2
10 86 5
10 87 3
10 88 5
10 89 2
10 90 4
10 91 3
10 92 1
10 93 3
10 94 1
10 95 1
10 96 1
10 97 5
10 98 3
10 99 4
10 100 1
11 12 4
11 13 3
11 14 4
11 15 3
11 16 5
11 17 3
11 18 3
11 19 4
11 20 5
11 21 4
11 22 2
11 23 5
11 24 1
11 25 4
11 26 5
11 27 5
11 28 3
11 29 4
11 30 2
11 31 4
11 32 1
11 33 5
11 34 2
11 35 4
11 36 2
11 37 1
11 38 2
11 39 4
11 40 2
11 41 4
11 42 2
11 43 2
11 44 1
11 45 4
11 46 1
11 47 1
11 48 1
11 49 3
11 50 1
11 51 5
11 52 5
11 53 4
11 54 2
11 55 3
11 56 5
11 57 3
11 58 5
11 59 3
11 60 1
11 61 1
11 62 2
11 63 2
11 64 5
11 65 2
11 66 5
11 67 5
11 68 5
11 69 5
11 70 5
11 71 2
11 72 4
11 73 4
11 74 4
11 75 2
11 76 5
11 77 1
11 78 5
11 79 1
11 80 3
11 81 1
11 82 3
11 83 2
11 84 1
11 85 5
11 86 1
11 87 1
11 88 2
11 89 2
11 90 3
11 91 3
11 92 2
11 93 4
11 94 4
11 95 2
11 96 5
11 97 2
11 98 5
11 99 4
11 100 5
12 13 3
12 14 1
12 15 1
12 16 2
12 17 3
12 18 4
12 19 1
12 20 5
12 21 2
12 22 4
12 23 4
12 24 5
12 25 2
12 26 4
12 27 4
12 28 2
12 29 3
12 30 5
12 31 1
12 32 1
12 33 3
12 34 3
12 35 2
12 36 1
12 37 2
12 38 2
12 39 1
12 40 2
12 41 5
12 42 3
12 43 2
12 44 1
12 45 5
12 46 5
12 47 1
12 48 1
12 49 3
12 50 2
12 51 2
12 52 2
12 53 5
12 54 4
12 55 2
12 56 2
12 57 1
12 58 5
12 59 3
12 60 1
12 61 3
12 62 2
12 63 4
12 64 3
12 65 5
12 66 5
12 67 3
12 68 3
12 69 5
12 70 1
12 71 1
12 72 1
12 73 2
12 74 1
12 75 1
12 76 2
12 77 5
12 78 2
12 79 1
12 80 5
12 81 3
12 82 1
12 83 4
12 84 4
12 85 2
12 86 2
12 87 3
12 88 4
12 89 5
12 90 3
12 91 5
12 92 4
12 93 5
12 94 3
12 95 4
12 96 1
12 97 2
12 98 2
12 99 4
12 100 3
13 14 5
13 15 1
13 16 1
13 17 5
13 18 2
13 19 1
13 20 4
13 21 4
13 22 3
13 23 2
13 24 5
13 25 4
13 26 3
13 27 4
13 28 3
13 29 4
13 30 2
13 31 2
13 32 1
13 33 3
13 34 4
13 35 5
13 36 5
13 37 2
13 38 1
13 39 4
13 40 1
13 41 2
13 42 3
13 43 2
13 44 1
13 45 3
13 46 1
13 47 4
13 48 4
13 49 1
13 50 1
13 51 3
13 52 1
13 53 1
13 54 4
13 55 3
13 56 5
13 57 4
13 58 4
13 59 2
13 60 5
13 61 4
13 62 3
13 63 5
13 64 3
13 65 5
13 66 2
13 67 1
13 68 3
13 69 3
13 70 2
13 71 2
13 72 4
13 73 5
13 74 2
13 75 3
13 76 3
13 77 4
13 78 1
13 79 2
13 80 4
13 81 4
13 82 4
13 83 1
13 84 2
13 85 1
13 86 1
13 87 4
13 88 5
13 89 3
13 90 2
13 91 3
13 92 1
13 93 2
13 94 3
13 95 1
13 96 2
13 97 4
13 98 2
13 99 3
13 100 2
14 15 3
14 16 1
14 17 2
14 18 5
14 19 3
14 20 3
14 21 1
14 22 4
14 23 3
14 24 1
14 25 2
14 26 3
14 27 3
14 28 2
14 29 3
14 30 4
14 31 3
14 32 4
14 33 4
14 34 3
14 35 4
14 36 2
14 37 2
14 38 5
14 39 1
14 40 4
14 41 2
14 42 3
14 43 4
14 44 5
14 45 1
14 46 3
14 47 2
14 48 2
14 49 2
14 50 2
14 51 1
14 52 5
14 53 4
14 54 1
14 55 2
14 56 1
14 57 1
14 58 1
14 59 1
14 60 1
14 61 5
14 62 2
14 63 1
14 64 5
14 65 4
14 66 5
14 67 5
14 68 4
14 69 5
14 70 5
14 71 3
14 72 5
14 73 2
14 74 1
14 75 4
14 76 4
14 77 1
14 78 3
14 79 2
14 80 3
14 81 3
14 82 3
14 83 5
14 84 4
14 85 1
14 86 3
14 87 2
14 88 2
14 89 3
14 90 4
14 91 5
14 92 3
14 93 4
14 94 2
14 95 4
14 96 2
14 97 2
14 98 5
14 99 3
14 100 5
15 16 5
15 17 3
15 18 2
15 19 5
15 20 4
15 21 4
15 22 3
15 23 2
15 24 5
15 25 2
15 26 4
15 27 3
15 28 5
15 29 3
15 30 4
15 31 2
15 32 3
15 33 1
15 34 2
15 35 5
15 36 1
15 37 4
15 38 3
15 39 5
15 40 2
15 41 3
15 42 1
15 43 2
15 44 5
15 45 5
15 46 4
15 47 4
15 48 1
15 49 5
15 50 4
15 51 3
15 52 3
15 53 4
15 54 3
15 55 1
15 56 4
15 57 1
15 58 3
15 59 3
15 60 5
15 61 1
15 62 4
15 63 1
15 64 3
15 65 2
15 66 1
15 67 5
15 68 1
15 69 2
15 70 4
15 71 1
15 72 2
15 73 3
15 74 1
15 75 2
15 76 3
15 77 1
15 78 4
15 79 1
15 80 1
15 81 3
15 82 2
15 83 2
15 84 4
15 85 4
15 86 3
15 87 3
15 88 1
15 89 4
15 90 5
15 91 5
15 92 3
15 93 5
15 94 2
15 95 1
15 96 3
15 97 2
15 98 5
15 99 5
15 100 4
16 17 1
16 18 2
16 19 5
16 20 2
16 21 2
16 22 4
16 23 4
16 24 3
16 25 2
16 26 3
16 27 2
16 28 3
16 29 5
16 30 3
16 31 4
16 32 5
16 33 2
16 34 2
16 35 1
16 36 2
16 37 3
16 38 3
16 39 2
16 40 5
16 41 5
16 42 4
16 43 3
16 44 3
16 45 3
16 46 5
16 47 1
16 48 2
16 49 1
16 50 1
16 51 4
16 52 4
16 53 3
16 54 3
16 55 2
16 56 5
16 57 4
16 58 3
16 59 2
16 60 3
16 61 1
16 62 3
16 63 3
16 64 5
16 65 3
16 66 2
16 67 2
16 68 3
16 69 4
16 70 1
16 71 3
16 72 3
16 73 1
16 74 3
16 75 1
16 76 5
16 77 3
16 78 3
16 79 2
16 80 3
16 81 2
16 82 2
16 83 2
16 84 3
16 85 3
16 86 3
16 87 4
16 88 5
16 89 3
16 90 5
16 91 5
16 92 3
16 93 2
16 94 5
16 95 4
16 96 2
16 97 3
16 98 3
16 99 3
16 100 5
17 18 1
17 19 2
17 20 5
17 21 2
17 22 1
17 23 5
17 24 2
17 25 5
17 26 5
17 27 2
17 28 3
17 29 3
17 30 1
17 31 2
17 32 3
17 33 2
17 34 3
17 35 5
17 36 4
17 37 5
17 38 2
17 39 5
17 40 3
17 41 1
17 42 2
17 43 3
17 44 3
17 45 4
17 46 5
17 47 1
17 48 2
17 49 4
17 50 4
17 51 1
17 52 2
17 53 2
17 54 1
17 55 3
17 56 2
17 57 3
17 58 4
17 59 4
17 60 5
17 61 5
17 62 1
17 63 2
17 64 5
17 65 1
17 66 4
17 67 4
17 68 4
17 69 1
17 70 5
17 71 1
17 72 2
17 73 5
17 74 4
17 75 3
17 76 3
17 77 3
17 78 5
17 79 3
17 80 1
17 81 3
17 82 5
17 83 1
17 84 2
17 85 5
17 86 1
17 87 1
17 88 3
17 89 4
17 90 4
17 91 4
17 92 3
17 93 4
17 94 1
17 95 3
17 96 2
17 97 3
17 98 3
17 99 1
17 100 1
18 19 4
18 20 3
18 21 1
18 22 5
18 23 3
18 24 2
18 25 1
18 26 4
18 27 1
18 28 4
18 29 2
18 30 1
18 31 5
18 32 2
18 33 4
18 34 3
18 35 3
18 36 1
18 37 3
18 38 4
18 39 2
18 40 5
18 41 4
18 42 3
18 43 4
18 44 4
18 45 3
18 46 5
18 47 2
18 48 4
18 49 3
18 50 3
18 51 2
18 52 3
18 53 3
18 54 5
18 55 1
18 56 1
18 57 5
18 58 5
18 59 1
18 60 1
18 61 5
18 62 4
18 63 2
18 64 4
18 65 4
18 66 1
18 67 2
18 68 3
18 69 2
18 70 4
18 71 2
18 72 1
18 73 2
18 74 1
18 75 3
18 76 1
18 77 4
18 78 1
18 79 2
18 80 1
18 81 5
18 82 1
18 83 3
18 84 3
18 85 3
18 86 3
18 87 1
18 88 2
18 89 3
18 90 2
18 91 1
18 92 4
18 93 4
18 94 1
18 95 1
18 96 4
18 97 5
18 98 1
18 99 2
18 100 1
19 20 4
19 21 2
19 22 5
19 23 1
19 24 2
19 25 2
19 26 5
19 27 3
19 28 2
19 29 2
19 30 2
19 31 4
19 32 2
19 33 2
19 34 4
19 35 1
19 36 5
19 37 1
19 38 1
19 39 4
19 40 4
19 41 5
19 42 5
19 43 1
19 44 3
19 45 3
19 46 1
19 47 4
19 48 2
19 49 5
19 50 4
19 51 2
19 52 1
19 53 2
19 54 5
19 55 3
19 56 2
19 57 5
19 58 4
19 59 1
19 60 1
19 61 4
19 62 5
19 63 3
19 64 1
19 65 1
19 66 5
19 67 3
19 68 4
19 69 4
19 70 2
19 71 4
19 72 2
19 73 3
19 74 2
19 75 4
19 76 2
19 77 4
19 78 3
19 79 1
19 80 5
19 81 2
19 82 1
19 83 5
19 84 1
19 85 2
19 86 3
19 87 3
19 88 3
19 89 5
19 90 4
19 91 2
19 92 3
19 93 5
19 94 1
19 95 3
19 96 3
19 97 2
19 98 2
19 99 4
19 100 5
20 21 3
20 22 3
20 23 2
20 24 2
20 25 5
20 26 5
20 27 5
20 28 4
20 29 3
20 30 1
20 31 5
20 32 4
20 33 3
20 34 4
20 35 5
20 36 3
20 37 5
20 38 5
20 39 3
20 40 5
20 41 5
20 42 4
20 43 3
20 44 4
20 45 3
20 46 2
20 47 5
20 48 5
20 49 2
20 50 1
20 51 1
20 52 2
20 53 3
20 54 2
20 55 3
20 56 5
20 57 4
20 58 3
20 59 3
20 60 4
20 61 3
20 62 1
20 63 2
20 64 5
20 65 5
20 66 3
20 67 2
20 68 3
20 69 3
20 70 5
20 71 2
20 72 4
20 73 1
20 74 2
20 75 3
20 76 2
20 77 1
20 78 3
20 79 4
20 80 5
20 81 2
20 82 4
20 83 3
20 84 1
20 85 5
20 86 3
20 87 1
20 88 4
20 89 5
20 90 1
20 91 5
20 92 4
20 93 2
20 94 2
20 95 4
20 96 5
20 97 4
20 98 3
20 99 4
20 100 2
21 22 1
21 23 2
21 24 5
21 25 3
21 26 2
21 27 1
21 28 5
21 29 4
21 30 4
21 31 4
21 32 4
21 33 1
21 34 3
21 35 3
21 36 1
21 37 5
21 38 1
21 39 5
21 40 2
21 41 5
21 42 5
21 43 1
21 44 2
21 45 2
21 46 4
21 47 2
21 48 3
21 49 1
21 50 5
21 51 1
21 52 1
21 53 1
21 54 3
21 55 3
21 56 1
21 57 5
21 58 2
21 59 2
21 60 1
21 61 5
21 62 5
21 63 5
21 64 2
21 65 2
21 66 4
21 67 4
21 68 3
21 69 4
21 70 5
21 71 5
21 72 2
21 73 1
21 74 4
21 75 1
21 76 4
21 77 3
21 78 3
21 79 5
21 80 3
21 81 2
21 82 4
21 83 4
21 84 4
21 85 2
21 86 4
21 87 1
21 88 4
21 89 1
21 90 1
21 91 5
21 92 4
21 93 1
21 94 3
21 95 4
21 96 5
21 97 1
21 98 1
21 99 2
21 100 1
22 23 2
22 24 4
22 25 1
22 26 4
22 27 5
22 28 2
22 29 4
22 30 4
22 31 4
22 32 2
22 33 1
22 34 1
22 35 2
22 36 5
22 37 1
22 38 1
22 39 1
22 40 4
22 41 3
22 42 2
22 43 5
22 44 4
22 45 4
22 46 1
22 47 5
22 48 3
22 49 4
22 50 5
22 51 4
22 52 1
22 53 1
22 54 4
22 55 2
22 56 5
22 57 5
22 58 4
22 59 3
22 60 5
22 61 2
22 62 4
22 63 5
22 64 4
22 65 4
22 66 2
22 67 1
22 68 4
22 69 5
22 70 5
22 71 4
22 72 3
22 73 2
22 74 3
22 75 5
22 76 3
22 77 1
22 78 5
22 79 1
22 80 1
22 81 4
22 82 3
22 83 1
22 84 1
22 85 2
22 86 5
22 87 3
22 88 4
22 89 1
22 90 4
22 91 5
22 92 4
22 93 2
22 94 3
22 95 3
22 96 4
22 97 2
22 98 5
22 99 3
22 100 2
23 24 3
23 25 2
23 26 4
23 27 2
23 28 5
23 29 1
23 30 5
23 31 5
23 32 5
23 33 2
23 34 5
23 35 3
23 36 4
23 37 3
23 38 2
23 39 3
23 40 3
23 41 5
23 42 3
23 43 2
23 44 3
23 45 2
23 46 2
23 47 5
23 48 3
23 49 1
23 50 2
23 51 2
23 52 4
23 53 5
23 54 3
23 55 4
23 56 5
23 57 5
23 58 2
23 59 4
23 60 1
23 61 1
23 62 3
23 63 2
23 64 5
23 65 4
23 66 5
23 67 1
23 68 2
23 69 4
23 70 3
23 71 1
23 72 4
23 73 4
23 74 2
23 75 4
23 76 3
23 77 3
23 78 4
23 79 2
23 80 4
23 81 2
23 82 1
23 83 1
23 84 4
23 85 3
23 86 3
23 87 2
23 88 4
23 89 5
23 90 5
23 91 3
23 92 5
23 93 3
23 94 3
23 95 3
23 96 4
23 97 4
23 98 1
23 99 1
23 100 2
24 25 2
24 26 1
24 27 1
24 28 3
24 29 4
24 30 1
24 31 2
24 32 3
24 33 5
24 34 2
24 35 4
24 36 2
24 37 1
24 38 1
24 39 3
24 40 5
24 41 1
24 42 2
24 43 5
24 44 4
24 45 3
24 46 2
24 47 5
24 48 3
24 49 3
24 50 5
24 51 1
24 52 3
24 53 2
24 54 1
24 55 2
24 56 3
24 57 1
24 58 4
24 59 4
24 60 3
24 61 2
24 62 2
24 63 3
24 64 5
24 65 5
24 66 1
24 67 4
24 68 4
24 69 3
24 70 2
24 71 1
24 72 5
24 73 3
24 74 3
24 75 5
24 76 1
24 77 1
24 78 3
24 79 3
24 80 3
24 81 2
24 82 5
24 83 3
24 84 5
24 85 3
24 86 1
24 87 2
24 88 5
24 89 2
24 90 4
24 91 2
24 92 1
24 93 1
24 94 4
24 95 1
24 96 1
24 97 2
24 98 3
24 99 3
24 100 3
25 26 4
25 27 2
25 28 1
25 29 3
25 30 5
25 31 4
25 32 5
25 33 3
25 34 4
25 35 2
25 36 2
25 37 3
25 38 5
25 39 5
25 40 4
25 41 2
25 42 1
25 43 1
25 44 4
25 45 5
25 46 1
25 47 3
25 48 1
25 49 1
25 50 4
25 51 3
25 52 2
25 53 5
25 54 4
25 55 5
25 56 2
25 57 3
25 58 1
25 59 2
25 60 1
25 61 2
25 62 4
25 63 4
25 64 3
25 65 1
25 66 5
25 67 3
25 68 2
25 69 5
25 70 3
25 71 2
25 72 3
25 73 3
25 74 3
25 75 1
25 76 3
25 77 4
25 78 5
25 79 1
25 80 5
25 81 4
25 82 2
25 83 3
25 84 5
25 85 1
25 86 3
25 87 4
25 88 2
25 89 1
25 90 3
25 91 5
25 92 1
25 93 3
25 94 4
25 95 1
25 96 1
25 97 4
25 98 3
25 99 1
25 100 5
26 27 2
26 28 3
26 29 4
26 30 5
26 31 4
26 32 5
26 33 5
26 34 3
26 35 4
26 36 3
26 37 2
26 38 1
26 39 1
26 40 2
26 41 4
26 42 4
26 43 2
26 44 2
26 45 3
26 46 2
26 47 4
26 48 4
26 49 3
26 50 2
26 51 2
26 52 1
26 53 1
26 54 2
26 55 2
26 56 1
26 57 3
26 58 4
26 59 3
26 60 5
26 61 3
26 62 3
26 63 2
26 64 2
26 65 2
26 66 4
26 67 1
26 68 3
26 69 1
26 70 4
26 71 1
26 72 5
26 73 2
26 74 5
26 75 5
26 76 1
26 77 3
26 78 2
26 79 1
26 80 1
26 81 4
26 82 1
26 83 3
26 84 4
26 85 2
26 86 4
26 87 3
26 88 3
26 89 4
26 90 5
26 91 5
26 92 1
26 93 3
26 94 1
26 95 4
26 96 4
26 97 1
26 98 4
26 99 1
26 100 1
27 28 1
27 29 4
27 30 1
27 31 4
27 32 2
27 33 5
27 34 5
27 35 3
27 36 1
27 37 5
27 38 3
27 39 4
27 40 3
27 41 3
27 42 1
27 43 2
27 44 2
27 45 4
27 46 1
27 47 4
27 48 5
27 49 2
27 50 2
27 51 4
27 52 4
27 53 1
27 54 1
27 55 4
27 56 4
27 57 4
27 58 5
27 59 2
27 60 1
27 61 4
27 62 4
27 63 5
27 64 5
27 65 2
27 66 1
27 67 1
27 68 3
27 69 3
27 70 1
27 71 4
27 72 4
27 73 1
27 74 3
27 75 3
27 76 2
27 77 1
27 78 1
27 79 5
27 80 1
27 81 2
27 82 4
27 83 2
27 84 3
27 85 5
27 86 2
27 87 5
27 88 4
27 89 5
27 90 3
27 91 4
27 92 4
27 93 5
27 94 2
27 95 3
27 96 4
27 97 1
27 98 4
27 99 5
27 100 5
28 29 3
28 30 4
28 31 4
28 32 3
28 33 5
28 34 1
28 35 3
28 36 1
28 37 4
28 38 4
28 39 3
28 40 5
28 41 4
28 42 1
28 43 1
28 44 2
28 45 5
28 46 4
28 47 5
28 48 1
28 49 2
28 50 2
28 51 5
28 52 1
28 53 3
28 54 4
28 55 4
28 56 2
28 57 3
28 58 5
28 59 3
28 60 3
28 61 1
28 62 1
28 63 1
28 64 3
28 65 3
28 66 2
28 67 2
28 68 1
28 69 3
28 70 4
28 71 5
28 72 1
28 73 2
28 74 5
28 75 1
28 76 5
28 77 3
28 78 1
28 79 4
28 80 5
28 81 5
28 82 5
28 83 2
28 84 1
28 85 5
28 86 5
28 87 5
28 88 5
28 89 1
28 90 1
28 91 5
28 92 1
28 93 4
28 94 1
28 95 2
28 96 1
28 97 1
28 98 3
28 99 4
28 100 3
29 30 2
29 31 3
29 32 3
29 33 5
29 34 5
29 35 5
29 36 4
29 37 3
29 38 5
29 39 2
29 40 4
29 41 3
29 42 3
29 43 3
29 44 1
29 45 1
29 46 4
29 47 4
29 48 1
29 49 2
29 50 4
29 51 3
29 52 4
29 53 5
29 54 4
29 55 4
29 56 1
29 57 1
29 58 2
29 59 2
29 60 4
29 61 4
29 62 4
29 63 2
29 64 5
29 65 4
29 66 4
29 67 2
29 68 3
29 69 1
29 70 5
29 71 4
29 72 1
29 73 1
29 74 3
29 75 2
29 76 3
29 77 1
29 78 3
29 79 4
29 80 5
29 81 3
29 82 5
29 83 3
29 84 3
29 85 3
29 86 2
29 87 3
29 88 1
29 89 2
29 90 2
29 91 1
29 92 4
29 93 1
29 94 2
29 95 3
29 96 3
29 97 5
29 98 3
29 99 4
29 100 4
30 31 5
30 32 3
30 33 1
30 34 4
30 35 2
30 36 2
30 37 2
30 38 4
30 39 2
30 40 4
30 41 3
30 42 2
30 43 3
30 44 3
30 45 3
30 46 3
30 47 1
30 48 4
30 49 4
30 50 4
30 51 1
30 52 4
30 53 5
30 54 1
30 55 2
30 56 1
30 57 5
30 58 4
30 59 4
30 60 1
30 61 5
30 62 3
30 63 2
30 64 1
30 65 1
30 66 2
30 67 3
30 68 5
30 69 1
30 70 2
30 71 4
30 72 2
30 73 3
30 74 2
30 75 1
30 76 1
30 77 4
30 78 1
30 79 1
30 80 2
30 81 2
30 82 4
30 83 4
30 84 1
30 85 5
30 86 4
30 87 2
30 88 4
30 89 1
30 90 5
30 91 1
30 92 3
30 93 3
30 94 3
30 95 4
30 96 3
30 97 5
30 98 3
30 99 4
30 100 3
31 32 5
31 33 3
31 34 1
31 35 3
31 36 5
31 37 1
31 38 1
31 39 5
31 40 5
31 41 4
31 42 3
31 43 4
31 44 5
31 45 4
31 46 4
31 47 5
31 48 5
31 49 2
31 50 3
31 51 4
31 52 3
31 53 3
31 54 5
31 55 1
31 56 1
31 57 1
31 58 2
31 59 1
31 60 5
31 61 4
31 62 3
31 63 1
31 64 1
31 65 3
31 66 1
31 67 3
31 68 4
31 69 1
31 70 2
31 71 1
31 72 4
31 73 3
31 74 5
31 75 3
31 76 3
31 77 1
31 78 2
31 79 1
31 80 5
31 81 2
31 82 4
31 83 1
31 84 4
31 85 2
31 86 5
31 87 1
31 88 2
31 89 3
31 90 4
31 91 5
31 92 1
31 93 5
31 94 2
31 95 5
31 96 3
31 97 5
31 98 2
31 99 1
31 100 4
32 33 2
32 34 3
32 35 5
32 36 4
32 37 4
32 38 4
32 39 1
32 40 3
32 41 1
32 42 3
32 43 3
32 44 1
32 45 4
32 46 2
32 47 4
32 48 3
32 49 1
32 50 3
32 51 5
32 52 4
32 53 1
32 54 1
32 55 1
32 56 4
32 57 2
32 58 5
32 59 5
32 60 2
32 61 3
32 62 4
32 63 1
32 64 1
32 65 4
32 66 4
32 67 4
32 68 4
32 69 5
32 70 3
32 71 4
32 72 2
32 73 4
32 74 1
32 75 5
32 76 4
32 77 1
32 78 4
32 79 2
32 80 2
32 81 4
32 82 4
32 83 1
32 84 3
32 85 4
32 86 3
32 87 1
32 88 4
32 89 5
32 90 3
32 91 4
32 92 5
32 93 3
32 94 5
32 95 2
32 96 1
32 97 1
32 98 4
32 99 3
32 100 5
33 34 3
33 35 4
33 36 5
33 37 5
33 38 5
33 39 3
33 40 5
33 41 5
33 42 1
33 43 3
33 44 4
33 45 3
33 46 1
33 47 5
33 48 5
33 49 2
33 50 3
33 51 5
33 52 3
33 53 4
33 54 5
33 55 1
33 56 4
33 57 3
33 58 2
33 59 1
33 60 5
33 61 5
33 62 4
33 63 4
33 64 4
33 65 5
33 66 1
33 67 5
33 68 4
33 69 1
33 70 1
33 71 4
33 72 1
33 73 5
33 74 3
33 75 2
33 76 4
33 77 5
33 78 4
33 79 5
33 80 2
33 81 1
33 82 5
33 83 2
33 84 1
33 85 1
33 86 3
33 87 4
33 88 2
33 89 3
33 90 3
33 91 5
33 92 2
33 93 3
33 94 3
33 95 3
33 96 1
33 97 1
33 98 2
33 99 1
33 100 1
34 35 5
34 36 4
34 37 1
34 38 5
34 39 1
34 40 1
34 41 3
34 42 2
34 43 5
34 44 4
34 45 5
34 46 2
34 47 2
34 48 1
34 49 5
34 50 3
34 51 5
34 52 1
34 53 1
34 54 1
34 55 2
34 56 4
34 57 3
34 58 3
34 59 1
34 60 4
34 61 3
34 62 1
34 63 3
34 64 3
34 65 2
34 66 3
34 67 2
34 68 1
34 69 5
34 70 3
34 71 2
34 72 4
34 73 2
34 74 5
34 75 5
34 76 5
34 77 4
34 78 5
34 79 3
34 80 1
34 81 2
34 82 1
34 83 1
34 84 5
34 85 5
34 86 3
34 87 5
34 88 2
34 89 5
34 90 5
34 91 2
34 92 3
34 93 2
34 94 4
34 95 5
34 96 1
34 97 1
34 98 2
34 99 4
34 100 1
35 36 1
35 37 1
35 38 4
35 39 1
35 40 2
35 41 3
35 42 1
35 43 5
35 44 2
35 45 1
35 46 1
35 47 3
35 48 3
35 49 5
35 50 3
35 51 5
35 52 2
35 53 5
35 54 1
35 55 3
35 56 3
35 57 4
35 58 1
35 59 3
35 60 1
35 61 1
35 62 2
35 63 1
35 64 2
35 65 2
35 66 2
35 67 4
35 68 2
35 69 3
35 70 2
35 71 5
35 72 5
35 73 5
35 74 4
35 75 1
35 76 3
35 77 1
35 78 5
35 79 3
35 80 5
35 81 5
35 82 4
35 83 5
35 84 3
35 85 5
35 86 1
35 87 3
35 88 1
35 89 4
35 90 2
35 91 5
35 92 4
35 93 5
35 94 5
35 95 3
35 96 4
35 97 4
35 98 3
35 99 3
35 100 4
36 37 5
36 38 5
36 39 1
36 40 5
36 41 3
36 42 5
36 43 5
36 44 3
36 45 5
36 46 2
36 47 4
36 48 4
36 49 1
36 50 2
36 51 2
36 52 3
36 53 3
36 54 2
36 55 1
36 56 1
36 57 1
36 58 4
36 59 1
36 60 3
36 61 5
36 62 1
36 63 1
36 64 2
36 65 3
36 66 2
36 67 4
36 68 4
36 69 4
36 70 5
36 71 1
36 72 4
36 73 3
36 74 2
36 75 3
36 76 5
36 77 2
36 78 1
36 79 3
36 80 5
36 81 2
36 82 4
36 83 5
36 84 5
36 85 1
36 86 1
36 87 1
36 88 2
36 89 1
36 90 4
36 91 3
36 92 1
36 93 2
36 94 5
36 95 3
36 96 1
36 97 3
36 98 2
36 99 1
36 100 5
37 38 1
37 39 2
37 40 4
37 41 4
37 42 1
37 43 2
37 44 3
37 45 5
37 46 1
37 47 3
37 48 3
37 49 5
37 50 5
37 51 5
37 52 4
37 53 3
37 54 1
37 55 1
37 56 4
37 57 4
37 58 5
37 59 4
37 60 4
37 61 5
37 62 4
37 63 2
37 64 5
37 65 4
37 66 5
37 67 2
37 68 5
37 69 2
37 70 1
37 71 2
37 72 1
37 73 1
37 74 4
37 75 5
37 76 2
37 77 4
37 78 1
37 79 2
37 80 4
37 81 3
37 82 4
37 83 5
37 84 2
37 85 1
37 86 1
37 87 1
37 88 4
37 89 1
37 90 4
37 91 2
37 92 2
37 93 5
37 94 4
37 95 4
37 96 2
37 97 5
37 98 4
37 99 5
37 100 5
38 39 3
38 40 5
38 41 3
38 42 2
38 43 2
38 44 4
38 45 4
38 46 4
38 47 4
38 48 1
38 49 5
38 50 4
38 51 2
38 52 3
38 53 5
38 54 2
38 55 3
38 56 3
38 57 5
38 58 5
38 59 4
38 60 2
38 61 3
38 62 2
38 63 2
38 64 5
38 65 5
38 66 5
38 67 1
38 68 1
38 69 3
38 70 3
38 71 3
38 72 2
38 73 2
38 74 2
38 75 1
38 76 2
38 77 3
38 78 1
38 79 5
38 80 2
38 81 1
38 82 1
38 83 1
38 84 2
38 85 2
38 86 5
38 87 2
38 88 4
38 89 4
38 90 3
38 91 3
38 92 2
38 93 1
38 94 2
38 95 2
38 96 3
38 97 1
38 98 1
38 99 2
38 100 4
39 40 2
39 41 4
39 42 4
39 43 2
39 44 2
39 45 2
39 46 5
39 47 1
39 48 4
39 49 3
39 50 4
39 51 3
39 52 1
39 53 5
39 54 1
39 55 2
39 56 4
39 57 2
39 58 4
39 59 2
39 60 1
39 61 4
39 62 3
39 63 2
39 64 5
39 65 1
39 66 3
39 67 2
39 68 2
39 69 3
39 70 1
39 71 3
39 72 4
39 73 1
39 74 4
39 75 4
39 76 1
39 77 3
39 78 1
39 79 3
39 80 3
39 81 2
39 82 3
39 83 4
39 84 2
39 85 1
39 86 4
39 87 2
39 88 4
39 89 2
39 90 5
39 91 1
39 92 2
39 93 3
39 94 1
39 95 3
39 96 3
39 97 2
39 98 2
39 99 2
39 100 4
40 41 2
40 42 3
40 43 3
40 44 2
40 45 2
40 46 3
40 47 4
40 48 5
40 49 2
40 50 3
40 51 2
40 52 2
40 53 4
40 54 5
40 55 3
40 56 4
40 57 3
40 58 2
40 59 4
40 60 4
40 61 2
40 62 4
40 63 4
40 64 1
40 65 1
40 66 2
40 67 4
40 68 3
40 69 1
40 70 2
40 71 4
40 72 3
40 73 1
40 74 5
40 75 4
40 76 4
40 77 1
40 78 1
40 79 1
40 80 2
40 81 1
40 82 3
40 83 1
40 84 2
40 85 2
40 86 2
40 87 5
40 88 4
40 89 1
40 90 5
40 91 3
40 92 1
40 93 2
40 94 1
40 95 2
40 96 5
40 97 3
40 98 4
40 99 4
40 100 2
41 42 2
41 43 3
41 44 5
41 45 5
41 46 1
41 47 4
41 48 2
41 49 2
41 50 5
41 51 3
41 52 5
41 53 4
41 54 4
41 55 1
41 56 5
41 57 5
41 58 1
41 59 1
41 60 3
41 61 4
41 62 4
41 63 5
41 64 4
41 65 1
41 66 3
41 67 3
41 68 1
41 69 4
41 70 3
41 71 4
41 72 1
41 73 3
41 74 2
41 75 1
41 76 4
41 77 2
41 78 1
41 79 3
41 80 1
41 81 5
41 82 3
41 83 4
41 84 1
41 85 5
41 86 2
41 87 3
41 88 2
41 89 3
41 90 1
41 91 5
41 92 1
41 93 3
41 94 2
41 95 3
41 96 5
41 97 2
41 98 4
41 99 5
41 100 5
42 43 4
42 44 2
42 45 1
42 46 2
42 47 3
42 48 5
42 49 1
42 50 3
42 51 5
42 52 5
42 53 2
42 54 5
42 55 1
42 56 5
42 57 1
42 58 1
42 59 5
42 60 4
42 61 1
42 62 4
42 63 2
42 64 1
42 65 1
42 66 4
42 67 3
42 68 3
42 69 1
42 70 4
42 71 2
42 72 5
42 73 3
42 74 1
42 75 2
42 76 2
42 77 5
42 78 2
42 79 3
42 80 1
42 81 4
42 82 4
42 83 1
42 84 2
42 85 3
42 86 3
42 87 1
42 88 3
42 89 2
42 90 2
42 91 2
42 92 5
42 93 2
42 94 2
42 95 5
42 96 3
42 97 1
42 98 5
42 99 2
42 100 5
43 44 5
43 45 1
43 46 3
43 47 3
43 48 2
43 49 5
43 50 1
43 51 3
43 52 4
43 53 4
43 54 1
43 55 1
43 56 3
43 57 1
43 58 1
43 59 5
43 60 2
43 61 1
43 62 2
43 63 2
43 64 1
43 65 2
43 66 1
43 67 4
43 68 1
43 69 2
43 70 2
43 71 5
43 72 2
43 73 1
43 74 4
43 75 1
43 76 4
43 77 3
43 78 1
43 79 5
43 80 1
43 81 2
43 82 5
43 83 5
43 84 5
43 85 3
43 86 1
43 87 1
43 88 2
43 89 2
43 90 1
43 91 3
43 92 2
43 93 5
43 94 2
43 95 5
43 96 5
43 97 2
43 98 5
43 99 5
43 100 2
44 45 2
44 46 4
44 47 2
44 48 2
44 49 1
44 50 3
44 51 4
44 52 2
44 53 2
44 54 1
44 55 4
44 56 1
44 57 4
44 58 1
44 59 3
44 60 4
44 61 2
44 62 2
44 63 4
44 64 2
44 65 4
44 66 4
44 67 4
44 68 1
44 69 1
44 70 2
44 71 3
44 72 5
44 73 3
44 74 2
44 75 1
44 76 3
44 77 5
44 78 4
44 79 1
44 80 5
44 81 4
44 82 3
44 83 1
44 84 2
44 85 3
44 86 3
44 87 5
44 88 2
44 89 1
44 90 1
44 91 1
44 92 2
44 93 3
44 94 2
44 95 3
44 96 1
44 97 3
44 98 3
44 99 1
44 100 3
45 46 4
45 47 2
45 48 1
45 49 1
45 50 4
45 51 1
45 52 5
45 53 5
45 54 5
45 55 5
45 56 4
45 57 2
45 58 2
45 59 5
45 60 5
45 61 3
45 62 3
45 63 2
45 64 3
45 65 4
45 66 2
45 67 4
45 68 3
45 69 2
45 70 1
45 71 3
45 72 1
45 73 1
45 74 2
45 75 1
45 76 2
45 77 5
45 78 4
45 79 1
45 80 2
45 81 4
45 82 1
45 83 2
45 84 3
45 85 2
45 86 1
45 87 1
45 88 4
45 89 3
45 90 5
45 91 5
45 92 1
45 93 5
45 94 2
45 95 5
45 96 1
45 97 4
45 98 2
45 99 5
45 100 4
46 47 2
46 48 5
46 49 3
46 50 2
46 51 3
46 52 3
46 53 4
46 54 5
46 55 3
46 56 5
46 57 5
46 58 4
46 59 4
46 60 3
46 61 2
46 62 4
46 63 5
46 64 5
46 65 4
46 66 5
46 67 3
46 68 5
46 69 5
46 70 5
46 71 4
46 72 2
46 73 4
46 74 4
46 75 1
46 76 4
46 77 4
46 78 4
46 79 5
46 80 5
46 81 3
46 82 4
46 83 5
46 84 1
46 85 2
46 86 4
46 87 1
46 88 3
46 89 5
46 90 4
46 91 4
46 92 1
46 93 4
46 94 4
46 95 3
46 96 4
46 97 1
46 98 3
46 99 1
46 100 3
47 48 4
47 49 5
47 50 4
47 51 3
47 52 1
47 53 1
47 54 3
47 55 2
47 56 5
47 57 4
47 58 3
47 59 2
47 60 3
47 61 3
47 62 3
47 63 5
47 64 4
47 65 2
47 66 2
47 67 2
47 68 1
47 69 2
47 70 1
47 71 3
47 72 5
47 73 5
47 74 2
47 75 2
47 76 5
47 77 2
47 78 5
47 79 1
47 80 3
47 81 3
47 82 2
47 83 3
47 84 2
47 85 2
47 86 2
47 87 3
47 88 5
47 89 5
47 90 5
47 91 5
47 92 1
47 93 4
47 94 5
47 95 5
47 96 1
47 97 3
47 98 3
47 99 3
47 100 5
48 49 4
48 50 4
48 51 5
48 52 4
48 53 3
48 54 4
48 55 3
48 56 5
48 57 3
48 58 4
48 59 4
48 60 2
48 61 3
48 62 4
48 63 5
48 64 4
48 65 3
48 66 3
48 67 4
48 68 5
48 69 3
48 70 4
48 71 5
48 72 3
48 73 1
48 74 4
48 75 3
48 76 2
48 77 1
48 78 3
48 79 2
48 80 1
48 81 4
48 82 2
48 83 4
48 84 3
48 85 2
48 86 1
48 87 4
48 88 3
48 89 3
48 90 5
48 91 3
48 92 4
48 93 4
48 94 4
48 95 5
48 96 3
48 97 4
48 98 4
48 99 3
48 100 5
49 50 3
49 51 1
49 52 2
49 53 1
49 54 4
49 55 1
49 56 1
49 57 4
49 58 4
49 59 3
49 60 2
49 61 5
49 62 1
49 63 1
49 64 4
49 65 1
49 66 4
49 67 4
49 68 4
49 69 4
49 70 4
49 71 1
49 72 5
49 73 1
49 74 3
49 75 5
49 76 4
49 77 2
49 78 4
49 79 2
49 80 3
49 81 4
49 82 2
49 83 2
49 84 3
49 85 1
49 86 1
49 87 5
49 88 1
49 89 2
49 90 1
49 91 5
49 92 5
49 93 3
49 94 3
49 95 1
49 96 3
49 97 4
49 98 2
49 99 1
49 100 3
50 51 3
50 52 3
50 53 1
50 54 2
50 55 1
50 56 5
50 57 2
50 58 5
50 59 2
50 60 3
50 61 1
50 62 3
50 63 1
50 64 3
50 65 5
50 66 5
50 67 1
50 68 5
50 69 5
50 70 3
50 71 2
50 72 2
50 73 5
50 74 3
50 75 2
50 76 4
50 77 3
50 78 1
50 79 3
50 80 5
50 81 4
50 82 2
50 83 4
50 84 5
50 85 1
50 86 5
50 87 2
50 88 3
50 89 2
50 90 4
50 91 1
50 92 1
50 93 4
50 94 4
50 95 5
50 96 2
50 97 4
50 98 1
50 99 2
50 100 1
51 52 3
51 53 5
51 54 1
51 55 2
51 56 5
51 57 5
51 58 1
51 59 2
51 60 2
51 61 1
51 62 5
51 63 1
51 64 2
51 65 1
51 66 2
51 67 4
51 68 3
51 69 2
51 70 3
51 71 5
51 72 4
51 73 3
51 74 2
51 75 1
51 76 3
51 77 1
51 78 4
51 79 4
51 80 4
51 81 5
51 82 5
51 83 3
51 84 3
51 85 4
51 86 1
51 87 5
51 88 2
51 89 4
51 90 2
51 91 4
51 92 2
51 93 3
51 94 3
51 95 3
51 96 4
51 97 3
51 98 1
51 99 3
51 100 4
52 53 1
52 54 5
52 55 1
52 56 2
52 57 2
52 58 4
52 59 1
52 60 2
52 61 1
52 62 5
52 63 2
52 64 2
52 65 2
52 66 4
52 67 1
52 68 4
52 69 2
52 70 5
52 71 3
52 72 1
52 73 1
52 74 5
52 75 3
52 76 5
52 77 2
52 78 3
52 79 5
52 80 5
52 81 3
52 82 4
52 83 2
52 84 2
52 85 1
52 86 4
52 87 2
52 88 1
52 89 5
52 90 4
52 91 2
52 92 3
52 93 3
52 94 2
52 95 5
52 96 1
52 97 1
52 98 2
52 99 3
52 100 1
53 54 4
53 55 5
53 56 3
53 57 3
53 58 3
53 59 2
53 60 4
53 61 3
53 62 1
53 63 2
53 64 4
53 65 1
53 66 1
53 67 5
53 68 2
53 69 1
53 70 1
53 71 5
53 72 3
53 73 3
53 74 1
53 75 1
53 76 1
53 77 4
53 78 2
53 79 3
53 80 5
53 81 2
53 82 2
53 83 3
53 84 5
53 85 5
53 86 2
53 87 3
53 88 1
53 89 4
53 90 5
53 91 5
53 92 4
53 93 1
53 94 1
53 95 1
53 96 3
53 97 2
53 98 5
53 99 2
53 100 4
54 55 1
54 56 2
54 57 1
54 58 5
54 59 2
54 60 2
54 61 1
54 62 5
54 63 1
54 64 5
54 65 2
54 66 3
54 67 1
54 68 1
54 69 4
54 70 5
54 71 1
54 72 1
54 73 4
54 74 5
54 75 5
54 76 5
54 77 5
54 78 5
54 79 4
54 80 4
54 81 3
54 82 3
54 83 1
54 84 4
54 85 1
54 86 2
54 87 1
54 88 2
54 89 4
54 90 3
54 91 3
54 92 5
54 93 2
54 94 4
54 95 1
54 96 5
54 97 2
54 98 5
54 99 1
54 100 1
55 56 5
55 57 2
55 58 3
55 59 2
55 60 1
55 61 4
55 62 2
55 63 2
55 64 4
55 65 4
55 66 3
55 67 5
55 68 5
55 69 4
55 70 4
55 71 1
55 72 4
55 73 3
55 74 5
55 75 4
55 76 1
55 77 4
55 78 2
55 79 2
55 80 5
55 81 5
55 82 5
55 83 2
55 84 4
55 85 1
55 86 4
55 87 2
55 88 1
55 89 4
55 90 4
55 91 4
55 92 4
55 93 5
55 94 5
55 95 4
55 96 2
55 97 4
55 98 5
55 99 3
55 100 5
56 57 2
56 58 1
56 59 3
56 60 3
56 61 5
56 62 5
56 63 3
56 64 2
56 65 3
56 66 1
56 67 1
56 68 4
56 69 1
56 70 5
56 71 3
56 72 4
56 73 4
56 74 3
56 75 5
56 76 4
56 77 1
56 78 3
56 79 1
56 80 3
56 81 4
56 82 1
56 83 3
56 84 2
56 85 1
56 86 5
56 87 3
56 88 1
56 89 4
56 90 1
56 91 2
56 92 4
56 93 1
56 94 2
56 95 3
56 96 5
56 97 5
56 98 5
56 99 5
56 100 2
57 58 2
57 59 2
57 60 3
57 61 3
57 62 1
57 63 2
57 64 4
57 65 2
57 66 4
57 67 3
57 68 5
57 69 5
57 70 3
57 71 1
57 72 3
57 73 4
57 74 3
57 75 3
57 76 4
57 77 3
57 78 4
57 79 2
57 80 3
57 81 3
57 82 1
57 83 5
57 84 4
57 85 4
57 86 5
57 87 2
57 88 3
57 89 4
57 90 5
57 91 2
57 92 4
57 93 3
57 94 1
57 95 3
57 96 4
57 97 4
57 98 5
57 99 2
57 100 2
58 59 2
58 60 2
58 61 1
58 62 3
58 63 2
58 64 2
58 65 5
58 66 4
58 67 1
58 68 3
58 69 4
58 70 5
58 71 2
58 72 4
58 73 3
58 74 3
58 75 1
58 76 2
58 77 1
58 78 3
58 79 1
58 80 5
58 81 5
58 82 2
58 83 3
58 84 1
58 85 1
58 86 4
58 87 2
58 88 4
58 89 4
58 90 3
58 91 5
58 92 5
58 93 5
58 94 4
58 95 3
58 96 2
58 97 5
58 98 3
58 99 2
58 100 5
59 60 1
59 61 4
59 62 4
59 63 4
59 64 1
59 65 5
59 66 5
59 67 5
59 68 1
59 69 2
59 70 5
59 71 1
59 72 2
59 73 2
59 74 4
59 75 5
59 76 2
59 77 3
59 78 1
59 79 5
59 80 1
59 81 2
59 82 1
59 83 2
59 84 4
59 85 5
59 86 4
59 87 2
59 88 2
59 89 2
59 90 1
59 91 1
59 92 5
59 93 2
59 94 3
59 95 5
59 96 5
59 97 1
59 98 3
59 99 2
59 100 1
60 61 3
60 62 2
60 63 5
60 64 4
60 65 4
60 66 1
60 67 3
60 68 2
60 69 2
60 70 5
60 71 4
60 72 2
60 73 2
60 74 1
60 75 5
60 76 3
60 77 2
60 78 4
60 79 4
60 80 3
60 81 5
60 82 4
60 83 5
60 84 3
60 85 2
60 86 3
60 87 4
60 88 2
60 89 5
60 90 3
60 91 3
60 92 3
60 93 4
60 94 1
60 95 4
60 96 1
60 97 4
60 98 4
60 99 5
60 100 5
61 62 5
61 63 3
61 64 1
61 65 2
61 66 5
61 67 5
61 68 5
61 69 2
61 70 4
61 71 3
61 72 3
61 73 2
61 74 2
61 75 2
61 76 1
61 77 2
61 78 5
61 79 2
61 80 2
61 81 2
61 82 5
61 83 2
61 84 4
61 85 3
61 86 1
61 87 5
61 88 1
61 89 4
61 90 4
61 91 4
61 92 5
61 93 5
61 94 2
61 95 1
61 96 3
61 97 3
61 98 1
61 99 3
61 100 1
62 63 1
62 64 2
62 65 4
62 66 2
62 67 5
62 68 4
62 69 4
62 70 3
62 71 4
62 72 1
62 73 5
62 74 4
62 75 5
62 76 4
62 77 1
62 78 4
62 79 3
62 80 1
62 81 4
62 82 5
62 83 2
62 84 2
62 85 1
62 86 5
62 87 3
62 88 5
62 89 5
62 90 5
62 91 5
62 92 3
62 93 5
62 94 4
62 95 4
62 96 1
62 97 3
62 98 3
62 99 4
62 100 2
63 64 2
63 65 2
63 66 5
63 67 4
63 68 5
63 69 3
63 70 3
63 71 1
63 72 2
63 73 5
63 74 5
63 75 3
63 76 3
63 77 4
63 78 5
63 79 4
63 80 3
63 81 4
63 82 1
63 83 5
63 84 4
63 85 2
63 86 5
63 87 3
63 88 4
63 89 1
63 90 5
63 91 5
63 92 3
63 93 3
63 94 5
63 95 3
63 96 2
63 97 2
63 98 2
63 99 3
63 100 2
64 65 3
64 66 5
64 67 3
64 68 5
64 69 2
64 70 1
64 71 4
64 72 1
64 73 5
64 74 1
64 75 1
64 76 4
64 77 3
64 78 1
64 79 4
64 80 5
64 81 3
64 82 2
64 83 2
64 84 2
64 85 2
64 86 3
64 87 3
64 88 2
64 89 5
64 90 5
64 91 5
64 92 4
64 93 3
64 94 4
64 95 2
64 96 4
64 97 2
64 98 2
64 99 2
64 100 1
65 66 4
65 67 5
65 68 3
65 69 2
65 70 5
65 71 3
65 72 2
65 73 5
65 74 4
65 75 5
65 76 1
65 77 2
65 78 4
65 79 2
65 80 3
65 81 2
65 82 3
65 83 2
65 84 2
65 85 5
65 86 5
65 87 2
65 88 5
65 89 2
65 90 3
65 91 4
65 92 5
65 93 5
65 94 5
65 95 4
65 96 4
65 97 5
65 98 2
65 99 4
65 100 1
66 67 4
66 68 5
66 69 5
66 70 5
66 71 1
66 72 1
66 73 4
66 74 2
66 75 3
66 76 4
66 77 4
66 78 5
66 79 1
66 80 4
66 81 2
66 82 4
66 83 3
66 84 5
66 85 5
66 86 4
66 87 4
66 88 4
66 89 4
66 90 1
66 91 3
66 92 4
66 93 2
66 94 4
66 95 2
66 96 5
66 97 2
66 98 1
66 99 5
66 100 4
67 68 4
67 69 2
67 70 2
67 71 5
67 72 1
67 73 3
67 74 3
67 75 4
67 76 2
67 77 5
67 78 4
67 79 4
67 80 2
67 81 1
67 82 3
67 83 3
67 84 4
67 85 3
67 86 1
67 87 4
67 88 1
67 89 1
67 90 2
67 91 3
67 92 5
67 93 4
67 94 5
67 95 3
67 96 4
67 97 4
67 98 4
67 99 5
67 100 3
68 69 1
68 70 2
68 71 4
68 72 1
68 73 5
68 74 5
68 75 5
68 76 2
68 77 3
68 78 3
68 79 2
68 80 5
68 81 4
68 82 4
68 83 5
68 84 5
68 85 3
68 86 1
68 87 5
68 88 2
68 89 1
68 90 5
68 91 3
68 92 1
68 93 5
68 94 2
68 95 3
68 96 4
68 97 4
68 98 2
68 99 1
68 100 2
69 70 3
69 71 2
69 72 5
69 73 1
69 74 4
69 75 2
69 76 5
69 77 4
69 78 2
69 79 2
69 80 5
69 81 3
69 82 4
69 83 3
69 84 3
69 85 5
69 86 4
69 87 5
69 88 3
69 89 3
69 90 3
69 91 3
69 92 5
69 93 3
69 94 2
69 95 3
69 96 5
69 97 1
69 98 4
69 99 2
69 100 1
70 71 5
70 72 5
70 73 3
70 74 3
70 75 4
70 76 3
70 77 1
70 78 1
70 79 1
70 80 4
70 81 5
70 82 4
70 83 4
70 84 5
70 85 2
70 86 3
70 87 5
70 88 4
70 89 1
70 90 5
70 91 3
70 92 5
70 93 1
70 94 3
70 95 3
70 96 3
70 97 3
70 98 3
70 99 5
70 100 4
71 72 4
71 73 2
71 74 2
71 75 3
71 76 2
71 77 4
71 78 3
71 79 2
71 80 5
71 81 3
71 82 5
71 83 5
71 84 2
71 85 1
71 86 3
71 87 5
71 88 4
71 89 1
71 90 5
71 91 5
71 92 4
71 93 5
71 94 3
71 95 3
71 96 5
71 97 4
71 98 5
71 99 5
71 100 1
72 73 1
72 74 4
72 75 3
72 76 2
72 77 3
72 78 2
72 79 4
72 80 2
72 81 2
72 82 5
72 83 2
72 84 2
72 85 1
72 86 2
72 87 3
72 88 4
72 89 1
72 90 3
72 91 1
72 92 3
72 93 1
72 94 1
72 95 3
72 96 1
72 97 5
72 98 3
72 99 4
72 100 4
73 74 5
73 75 5
73 76 5
73 77 3
73 78 1
73 79 4
73 80 2
73 81 2
73 82 4
73 83 1
73 84 5
73 85 1
73 86 2
73 87 3
73 88 2
73 89 2
73 90 2
73 91 1
73 92 1
73 93 1
73 94 5
73 95 5
73 96 4
73 97 4
73 98 5
73 99 3
73 100 1
74 75 3
74 76 5
74 77 3
74 78 1
74 79 1
74 80 1
74 81 5
74 82 4
74 83 2
74 84 1
74 85 3
74 86 1
74 87 2
74 88 2
74 89 5
74 90 4
74 91 4
74 92 2
74 93 4
74 94 4
74 95 4
74 96 5
74 97 5
74 98 2
74 99 4
74 100 5
75 76 2
75 77 1
75 78 3
75 79 3
75 80 2
75 81 2
75 82 5
75 83 2
75 84 4
75 85 5
75 86 4
75 87 4
75 88 4
75 89 2
75 90 2
75 91 2
75 92 4
75 93 4
75 94 2
75 95 4
75 96 4
75 97 2
75 98 2
75 99 1
75 100 1
76 77 5
76 78 1
76 79 3
76 80 1
76 81 4
76 82 2
76 83 5
76 84 2
76 85 3
76 86 1
76 87 4
76 88 2
76 89 4
76 90 5
76 91 1
76 92 4
76 93 3
76 94 3
76 95 2
76 96 5
76 97 2
76 98 2
76 99 3
76 100 5
77 78 5
77 79 5
77 80 5
77 81 5
77 82 4
77 83 2
77 84 1
77 85 1
77 86 4
77 87 3
77 88 5
77 89 5
77 90 2
77 91 2
77 92 2
77 93 3
77 94 1
77 95 2
77 96 1
77 97 4
77 98 3
77 99 3
77 100 1
78 79 1
78 80 5
78 81 5
78 82 2
78 83 4
78 84 2
78 85 5
78 86 1
78 87 5
78 88 5
78 89 5
78 90 1
78 91 5
78 92 4
78 93 4
78 94 2
78 95 3
78 96 3
78 97 5
78 98 1
78 99 5
78 100 2
79 80 4
79 81 3
79 82 2
79 83 5
79 84 5
79 85 5
79 86 2
79 87 5
79 88 2
79 89 5
79 90 3
79 91 1
79 92 2
79 93 5
79 94 4
79 95 1
79 96 2
79 97 2
79 98 1
79 99 1
79 100 5
80 81 4
80 82 2
80 83 4
80 84 4
80 85 3
80 86 3
80 87 2
80 88 3
80 89 5
80 90 4
80 91 4
80 92 1
80 93 2
80 94 4
80 95 3
80 96 2
80 97 1
80 98 1
80 99 5
80 100 2
81 82 5
81 83 1
81 84 1
81 85 2
81 86 3
81 87 5
81 88 5
81 89 3
81 90 2
81 91 4
81 92 4
81 93 3
81 94 3
81 95 4
81 96 3
81 97 2
81 98 2
81 99 4
81 100 2
82 83 4
82 84 4
82 85 5
82 86 5
82 87 2
82 88 5
82 89 4
82 90 3
82 91 2
82 92 1
82 93 1
82 94 4
82 95 1
82 96 3
82 97 5
82 98 4
82 99 5
82 100 2
83 84 4
83 85 5
83 86 4
83 87 1
83 88 4
83 89 3
83 90 3
83 91 3
83 92 5
83 93 3
83 94 4
83 95 5
83 96 1
83 97 5
83 98 4
83 99 1
83 100 3
84 85 1
84 86 4
84 87 4
84 88 3
84 89 3
84 90 3
84 91 5
84 92 2
84 93 4
84 94 2
84 95 1
84 96 5
84 97 3
84 98 3
84 99 5
84 100 3
85 86 5
85 87 1
85 88 5
85 89 4
85 90 4
85 91 5
85 92 5
85 93 4
85 94 1
85 95 4
85 96 3
85 97 1
85 98 2
85 99 4
85 100 2
86 87 2
86 88 2
86 89 2
86 90 4
86 91 3
86 92 2
86 93 1
86 94 5
86 95 2
86 96 3
86 97 5
86 98 5
86 99 1
86 100 5
87 88 4
87 89 1
87 90 2
87 91 1
87 92 4
87 93 3
87 94 5
87 95 2
87 96 5
87 97 2
87 98 2
87 99 5
87 100 5
88 89 1
88 90 5
88 91 3
88 92 5
88 93 2
88 94 1
88 95 4
88 96 2
88 97 1
88 98 3
88 99 3
88 100 4
89 90 3
89 91 3
89 92 3
89 93 2
89 94 3
89 95 3
89 96 2
89 97 2
89 98 5
89 99 3
89 100 2
90 91 1
90 92 1
90 93 1
90 94 5
90 95 2
90 96 1
90 97 1
90 98 3
90 99 4
90 100 3
91 92 1
91 93 2
91 94 2
91 95 3
91 96 2
91 97 3
91 98 2
91 99 2
91 100 4
92 93 5
92 94 2
92 95 3
92 96 2
92 97 5
92 98 1
92 99 1
92 100 4
93 94 2
93 95 2
93 96 2
93 97 3
93 98 5
93 99 5
93 100 3
94 95 3
94 96 3
94 97 2
94 98 3
94 99 1
94 100 3
95 96 4
95 97 1
95 98 3
95 99 4
95 100 2
96 97 3
96 98 2
96 99 5
96 100 5
97 98 3
97 99 3
97 100 1
98 99 3
98 100 3
99 100 5
